(set-info :smt-lib-version 2.6)
(set-logic UF)
(set-info :source |Benchmarks from the paper: "Extending Sledgehammer with SMT Solvers" by Jasmin Blanchette, Sascha Bohme, and Lawrence C. Paulson, CADE 2011.  Translated to SMT2 by Andrew Reynolds and Morgan Deters.|)
(set-info :category "industrial")
(set-info :status unknown)
(declare-sort S1 0)
(declare-sort S2 0)
(declare-sort S3 0)
(declare-sort S4 0)
(declare-sort S5 0)
(declare-sort S6 0)
(declare-sort S7 0)
(declare-sort S8 0)
(declare-sort S9 0)
(declare-sort S10 0)
(declare-sort S11 0)
(declare-sort S12 0)
(declare-sort S13 0)
(declare-sort S14 0)
(declare-sort S15 0)
(declare-sort S16 0)
(declare-sort S17 0)
(declare-sort S18 0)
(declare-sort S19 0)
(declare-sort S20 0)
(declare-sort S21 0)
(declare-sort S22 0)
(declare-sort S23 0)
(declare-sort S24 0)
(declare-sort S25 0)
(declare-sort S26 0)
(declare-sort S27 0)
(declare-sort S28 0)
(declare-sort S29 0)
(declare-sort S30 0)
(declare-sort S31 0)
(declare-sort S32 0)
(declare-sort S33 0)
(declare-sort S34 0)
(declare-sort S35 0)
(declare-sort S36 0)
(declare-sort S37 0)
(declare-sort S38 0)
(declare-sort S39 0)
(declare-sort S40 0)
(declare-sort S41 0)
(declare-sort S42 0)
(declare-sort S43 0)
(declare-sort S44 0)
(declare-sort S45 0)
(declare-sort S46 0)
(declare-sort S47 0)
(declare-sort S48 0)
(declare-sort S49 0)
(declare-sort S50 0)
(declare-sort S51 0)
(declare-sort S52 0)
(declare-sort S53 0)
(declare-sort S54 0)
(declare-sort S55 0)
(declare-sort S56 0)
(declare-sort S57 0)
(declare-sort S58 0)
(declare-sort S59 0)
(declare-sort S60 0)
(declare-sort S61 0)
(declare-sort S62 0)
(declare-sort S63 0)
(declare-sort S64 0)
(declare-sort S65 0)
(declare-sort S66 0)
(declare-sort S67 0)
(declare-sort S68 0)
(declare-sort S69 0)
(declare-sort S70 0)
(declare-sort S71 0)
(declare-sort S72 0)
(declare-sort S73 0)
(declare-sort S74 0)
(declare-sort S75 0)
(declare-sort S76 0)
(declare-sort S77 0)
(declare-sort S78 0)
(declare-sort S79 0)
(declare-sort S80 0)
(declare-sort S81 0)
(declare-sort S82 0)
(declare-sort S83 0)
(declare-sort S84 0)
(declare-sort S85 0)
(declare-sort S86 0)
(declare-sort S87 0)
(declare-sort S88 0)
(declare-sort S89 0)
(declare-sort S90 0)
(declare-sort S91 0)
(declare-sort S92 0)
(declare-fun f1 () S1)
(declare-fun f2 () S1)
(declare-fun f3 (S3 S2) S1)
(declare-fun f4 () S3)
(declare-fun f5 (S5 S2) S2)
(declare-fun f6 (S6 S2) S5)
(declare-fun f7 () S6)
(declare-fun f8 (S7 S4) S2)
(declare-fun f9 (S8 S4) S7)
(declare-fun f10 () S8)
(declare-fun f11 () S4)
(declare-fun f12 (S9 S10) S1)
(declare-fun f13 (S11 S4) S9)
(declare-fun f14 (S12 S2) S11)
(declare-fun f15 () S12)
(declare-fun f16 (S13) S10)
(declare-fun f17 (S14 S15) S13)
(declare-fun f18 () S14)
(declare-fun f19 () S15)
(declare-fun f20 (S10 S9) S1)
(declare-fun f21 (S16 S13) S10)
(declare-fun f22 (S10) S16)
(declare-fun f23 (S17 S18) S1)
(declare-fun f24 (S19 S15) S17)
(declare-fun f25 (S17) S19)
(declare-fun f26 (S18 S17) S1)
(declare-fun f27 (S15) S17)
(declare-fun f28 (S20 S22) S1)
(declare-fun f29 (S23 S21) S20)
(declare-fun f30 (S20) S23)
(declare-fun f31 (S22 S20) S1)
(declare-fun f32 (S21) S20)
(declare-fun f33 (S24 S21) S1)
(declare-fun f34 (S26 S25) S24)
(declare-fun f35 (S24) S26)
(declare-fun f36 (S21 S24) S1)
(declare-fun f37 (S25) S24)
(declare-fun f38 (S27 S4) S3)
(declare-fun f39 (S3) S27)
(declare-fun f40 (S2 S3) S1)
(declare-fun f41 (S4) S3)
(declare-fun f42 (S28 S10) S10)
(declare-fun f43 (S10) S28)
(declare-fun f44 (S29 S17) S17)
(declare-fun f45 (S17) S29)
(declare-fun f46 (S30 S20) S20)
(declare-fun f47 (S20) S30)
(declare-fun f48 (S31 S24) S24)
(declare-fun f49 (S24) S31)
(declare-fun f50 (S32 S3) S3)
(declare-fun f51 (S3) S32)
(declare-fun f52 (S33 S4) S1)
(declare-fun f53 (S34 S2) S33)
(declare-fun f54 (S35 S2) S34)
(declare-fun f55 () S35)
(declare-fun f56 () S34)
(declare-fun f57 (S18 S4) S1)
(declare-fun f58 () S18)
(declare-fun f59 (S36 S4) S4)
(declare-fun f60 (S37 S2) S36)
(declare-fun f61 () S37)
(declare-fun f62 () S6)
(declare-fun f63 () S2)
(declare-fun f64 () S6)
(declare-fun f65 () S2)
(declare-fun f66 (S38 S3) S2)
(declare-fun f67 () S38)
(declare-fun f68 (S3) S3)
(declare-fun f69 () S7)
(declare-fun f70 (S39 S15) S4)
(declare-fun f71 (S40 S41) S39)
(declare-fun f72 () S40)
(declare-fun f73 () S41)
(declare-fun f74 (S42 S15) S15)
(declare-fun f75 (S43 S17) S42)
(declare-fun f76 () S43)
(declare-fun f77 (S44 S35) S17)
(declare-fun f78 (S45 S35) S44)
(declare-fun f79 (S34) S45)
(declare-fun f80 () S4)
(declare-fun f81 (S2) S3)
(declare-fun f82 () S2)
(declare-fun f83 () S4)
(declare-fun f84 () S2)
(declare-fun f85 (S2) S3)
(declare-fun f86 () S13)
(declare-fun f87 (S3) S1)
(declare-fun f88 () S3)
(declare-fun f89 (S41 S18) S2)
(declare-fun f90 (S46 S4) S36)
(declare-fun f91 () S46)
(declare-fun f92 () S46)
(declare-fun f93 (S17) S17)
(declare-fun f94 (S47 S13) S13)
(declare-fun f95 (S48 S10) S47)
(declare-fun f96 () S48)
(declare-fun f97 (S10) S10)
(declare-fun f98 (S49 S3) S36)
(declare-fun f99 () S49)
(declare-fun f100 (S50 S21) S21)
(declare-fun f101 (S51 S20) S50)
(declare-fun f102 () S51)
(declare-fun f103 (S20) S20)
(declare-fun f104 (S52 S25) S25)
(declare-fun f105 (S53 S24) S52)
(declare-fun f106 () S53)
(declare-fun f107 (S24) S24)
(declare-fun f108 (S54 S18) S42)
(declare-fun f109 () S54)
(declare-fun f110 (S55 S22) S50)
(declare-fun f111 () S55)
(declare-fun f112 (S56 S21) S52)
(declare-fun f113 () S56)
(declare-fun f114 (S57 S9) S47)
(declare-fun f115 () S57)
(declare-fun f116 (S59 S58) S14)
(declare-fun f117 () S59)
(declare-fun f118 (S58 S18) S9)
(declare-fun f119 (S61 S4) S13)
(declare-fun f120 (S62 S60) S61)
(declare-fun f121 () S62)
(declare-fun f122 (S60 S2) S9)
(declare-fun f123 (S64 S15) S21)
(declare-fun f124 (S65 S63) S64)
(declare-fun f125 () S65)
(declare-fun f126 (S63 S18) S22)
(declare-fun f127 (S67 S4) S21)
(declare-fun f128 (S68 S66) S67)
(declare-fun f129 () S68)
(declare-fun f130 (S66 S2) S22)
(declare-fun f131 (S70 S15) S25)
(declare-fun f132 (S71 S69) S70)
(declare-fun f133 () S71)
(declare-fun f134 (S69 S18) S21)
(declare-fun f135 (S73 S4) S25)
(declare-fun f136 (S74 S72) S73)
(declare-fun f137 () S74)
(declare-fun f138 (S72 S2) S21)
(declare-fun f139 (S76 S13) S15)
(declare-fun f140 (S77 S75) S76)
(declare-fun f141 () S77)
(declare-fun f142 (S75 S9) S18)
(declare-fun f143 (S79 S13) S4)
(declare-fun f144 (S80 S78) S79)
(declare-fun f145 () S80)
(declare-fun f146 (S78 S9) S2)
(declare-fun f147 (S82 S21) S15)
(declare-fun f148 (S83 S81) S82)
(declare-fun f149 () S83)
(declare-fun f150 (S81 S22) S18)
(declare-fun f151 (S85 S21) S4)
(declare-fun f152 (S86 S84) S85)
(declare-fun f153 () S86)
(declare-fun f154 (S84 S22) S2)
(declare-fun f155 (S88 S25) S15)
(declare-fun f156 (S89 S87) S88)
(declare-fun f157 () S89)
(declare-fun f158 (S87 S21) S18)
(declare-fun f159 (S91 S25) S4)
(declare-fun f160 (S92 S90) S91)
(declare-fun f161 () S92)
(declare-fun f162 (S90 S21) S2)
(declare-fun f163 (S17) S1)
(declare-fun f164 (S10) S1)
(declare-fun f165 (S20) S1)
(declare-fun f166 (S24) S1)
(declare-fun f167 () S15)
(declare-fun f168 () S17)
(declare-fun f169 () S10)
(declare-fun f170 () S25)
(declare-fun f171 () S24)
(declare-fun f172 () S21)
(declare-fun f173 () S20)
(declare-fun f174 () S4)
(assert (not (= f1 f2)))
(assert (forall ((?v0 S2)) (= (= (f3 f4 ?v0) f1) (exists ((?v1 S4) (?v2 S2)) (and (= ?v0 (f5 (f6 f7 ?v2) (f8 (f9 f10 ?v1) f11))) (= (f12 (f13 (f14 f15 ?v2) ?v1) (f16 (f17 f18 f19))) f1))))))
(assert (forall ((?v0 S10) (?v1 S13) (?v2 S9)) (= (= (f20 (f21 (f22 ?v0) ?v1) ?v2) f1) (and (= (f12 ?v2 (f16 ?v1)) f1) (= (f20 ?v0 ?v2) f1)))))
(assert (forall ((?v0 S17) (?v1 S15) (?v2 S18)) (= (= (f23 (f24 (f25 ?v0) ?v1) ?v2) f1) (and (= (f26 ?v2 (f27 ?v1)) f1) (= (f23 ?v0 ?v2) f1)))))
(assert (forall ((?v0 S20) (?v1 S21) (?v2 S22)) (= (= (f28 (f29 (f30 ?v0) ?v1) ?v2) f1) (and (= (f31 ?v2 (f32 ?v1)) f1) (= (f28 ?v0 ?v2) f1)))))
(assert (forall ((?v0 S24) (?v1 S25) (?v2 S21)) (= (= (f33 (f34 (f35 ?v0) ?v1) ?v2) f1) (and (= (f36 ?v2 (f37 ?v1)) f1) (= (f33 ?v0 ?v2) f1)))))
(assert (forall ((?v0 S3) (?v1 S4) (?v2 S2)) (= (= (f3 (f38 (f39 ?v0) ?v1) ?v2) f1) (and (= (f40 ?v2 (f41 ?v1)) f1) (= (f3 ?v0 ?v2) f1)))))
(assert (forall ((?v0 S10) (?v1 S10) (?v2 S9)) (= (= (f20 (f42 (f43 ?v0) ?v1) ?v2) f1) (and (= (f20 ?v1 ?v2) f1) (= (f20 ?v0 ?v2) f1)))))
(assert (forall ((?v0 S17) (?v1 S17) (?v2 S18)) (= (= (f23 (f44 (f45 ?v0) ?v1) ?v2) f1) (and (= (f23 ?v1 ?v2) f1) (= (f23 ?v0 ?v2) f1)))))
(assert (forall ((?v0 S20) (?v1 S20) (?v2 S22)) (= (= (f28 (f46 (f47 ?v0) ?v1) ?v2) f1) (and (= (f28 ?v1 ?v2) f1) (= (f28 ?v0 ?v2) f1)))))
(assert (forall ((?v0 S24) (?v1 S24) (?v2 S21)) (= (= (f33 (f48 (f49 ?v0) ?v1) ?v2) f1) (and (= (f33 ?v1 ?v2) f1) (= (f33 ?v0 ?v2) f1)))))
(assert (forall ((?v0 S3) (?v1 S3) (?v2 S2)) (= (= (f3 (f50 (f51 ?v0) ?v1) ?v2) f1) (and (= (f3 ?v1 ?v2) f1) (= (f3 ?v0 ?v2) f1)))))
(assert (forall ((?v0 S2) (?v1 S2) (?v2 S4)) (= (= (f52 (f53 (f54 f55 ?v0) ?v1) ?v2) f1) true)))
(assert (forall ((?v0 S2) (?v1 S4)) (= (= (f52 (f53 f56 ?v0) ?v1) f1) false)))
(assert (not (= (f57 f58 (f59 (f60 f61 (f5 (f6 f7 (f5 (f6 f62 f63) (f5 (f6 f64 (f5 (f6 f7 f65) (f66 f67 (f68 f4)))) (f8 f69 (f70 (f71 f72 f73) (f74 (f75 f76 (f77 (f78 (f79 f56) f55) f55)) f19)))))) (f8 (f9 f10 f80) f11))) f11)) f1)))
(assert (= (f3 (f81 (f5 (f6 f7 f82) (f8 (f9 f10 f83) f11))) (f5 (f6 f7 f63) (f8 (f9 f10 f80) f11))) f1))
(assert (let ((?v_1 (f8 f69 (f70 (f71 f72 f73) (f74 (f75 f76 (f77 (f78 (f79 f56) f55) f55)) f19))))) (let ((?v_0 (f5 (f6 f64 (f5 (f6 f7 f65) (f66 f67 (f68 f4)))) ?v_1))) (and (= (f3 (f81 f84) ?v_0) f1) (= (f3 (f85 ?v_0) ?v_1) f1)))))
(assert (= (f3 (f81 (f5 (f6 f7 f82) (f8 (f9 f10 f83) f11))) (f5 (f6 f7 f63) (f8 (f9 f10 f80) f11))) f1))
(assert (= (f12 (f13 (f14 f15 f63) f80) (f16 (f17 f18 f19))) f1))
(assert (= (f57 f58 (f59 (f60 f61 f65) f11)) f1))
(assert (= (f66 f67 (f68 f4)) (f5 (f6 f7 f63) (f8 (f9 f10 f80) f11))))
(assert (not (= (f17 f18 f19) f86)))
(assert (let ((?v_0 (f68 f4))) (= (f40 (f66 f67 ?v_0) ?v_0) f1)))
(assert (= (f40 (f5 (f6 f7 f82) (f8 (f9 f10 f83) f11)) (f68 f4)) f1))
(assert (= (f26 f58 (f27 f19)) f1))
(assert (=> (forall ((?v0 S2) (?v1 S4)) (=> (= (f12 (f13 (f14 f15 ?v0) ?v1) (f16 (f17 f18 f19))) f1) (=> (= (f66 f67 (f68 f4)) (f5 (f6 f7 ?v0) (f8 (f9 f10 ?v1) f11))) false))) false))
(assert (forall ((?v0 S18)) (=> (= (f26 ?v0 (f27 f19)) f1) (= (f57 ?v0 (f59 (f60 f61 f65) f11)) f1))))
(assert (exists ((?v0 S2)) (forall ((?v1 S18)) (=> (= (f26 ?v1 (f27 f19)) f1) (= (f57 ?v1 (f59 (f60 f61 ?v0) f11)) f1)))))
(assert (= (f87 (f68 f4)) f1))
(assert (not (= (f68 f4) f88)))
(assert (forall ((?v0 S18)) (=> (= (f26 ?v0 (f27 f19)) f1) (not (= (f89 f73 ?v0) f84)))))
(assert (forall ((?v0 S4) (?v1 S4) (?v2 S4)) (= (f8 (f9 f10 (f59 (f90 f91 ?v0) ?v1)) ?v2) (f5 (f6 f7 (f8 (f9 f10 ?v0) ?v2)) (f8 (f9 f10 ?v1) ?v2)))))
(assert (forall ((?v0 S4) (?v1 S4) (?v2 S4)) (= (f8 (f9 f10 (f59 (f90 f92 ?v0) ?v1)) ?v2) (f5 (f6 f62 (f8 (f9 f10 ?v0) ?v2)) (f8 (f9 f10 ?v1) ?v2)))))
(assert (forall ((?v0 S2) (?v1 S2) (?v2 S2)) (let ((?v_0 (f6 f7 ?v0))) (= (f5 (f6 f64 (f5 ?v_0 (f5 (f6 f64 ?v1) ?v2))) ?v2) (f5 (f6 f64 (f5 ?v_0 ?v1)) ?v2)))))
(assert (forall ((?v0 S2) (?v1 S2) (?v2 S2)) (= (f5 (f6 f64 (f5 (f6 f7 (f5 (f6 f64 ?v0) ?v1)) ?v2)) ?v1) (f5 (f6 f64 (f5 (f6 f7 ?v0) ?v2)) ?v1))))
(assert (forall ((?v0 S17) (?v1 S15)) (= (f27 (f74 (f75 f76 ?v0) ?v1)) (f93 (f24 (f25 ?v0) ?v1)))))
(assert (forall ((?v0 S10) (?v1 S13)) (= (f16 (f94 (f95 f96 ?v0) ?v1)) (f97 (f21 (f22 ?v0) ?v1)))))
(assert (forall ((?v0 S3) (?v1 S4)) (= (f41 (f59 (f98 f99 ?v0) ?v1)) (f68 (f38 (f39 ?v0) ?v1)))))
(assert (forall ((?v0 S20) (?v1 S21)) (= (f32 (f100 (f101 f102 ?v0) ?v1)) (f103 (f29 (f30 ?v0) ?v1)))))
(assert (forall ((?v0 S24) (?v1 S25)) (= (f37 (f104 (f105 f106 ?v0) ?v1)) (f107 (f34 (f35 ?v0) ?v1)))))
(assert (forall ((?v0 S17) (?v1 S15)) (= (= (f74 (f75 f76 ?v0) ?v1) ?v1) (forall ((?v2 S18)) (=> (= (f26 ?v2 (f27 ?v1)) f1) (= (f23 ?v0 ?v2) f1))))))
(assert (forall ((?v0 S10) (?v1 S13)) (= (= (f94 (f95 f96 ?v0) ?v1) ?v1) (forall ((?v2 S9)) (=> (= (f12 ?v2 (f16 ?v1)) f1) (= (f20 ?v0 ?v2) f1))))))
(assert (forall ((?v0 S3) (?v1 S4)) (= (= (f59 (f98 f99 ?v0) ?v1) ?v1) (forall ((?v2 S2)) (=> (= (f40 ?v2 (f41 ?v1)) f1) (= (f3 ?v0 ?v2) f1))))))
(assert (forall ((?v0 S20) (?v1 S21)) (= (= (f100 (f101 f102 ?v0) ?v1) ?v1) (forall ((?v2 S22)) (=> (= (f31 ?v2 (f32 ?v1)) f1) (= (f28 ?v0 ?v2) f1))))))
(assert (forall ((?v0 S24) (?v1 S25)) (= (= (f104 (f105 f106 ?v0) ?v1) ?v1) (forall ((?v2 S21)) (=> (= (f36 ?v2 (f37 ?v1)) f1) (= (f33 ?v0 ?v2) f1))))))
(assert (forall ((?v0 S17) (?v1 S18) (?v2 S15)) (let ((?v_1 (f75 f76 ?v0)) (?v_0 (f108 f109 ?v1))) (let ((?v_2 (f74 ?v_1 ?v2))) (= (f74 ?v_1 (f74 ?v_0 ?v2)) (ite (= (f23 ?v0 ?v1) f1) (f74 ?v_0 ?v_2) ?v_2))))))
(assert (forall ((?v0 S20) (?v1 S22) (?v2 S21)) (let ((?v_1 (f101 f102 ?v0)) (?v_0 (f110 f111 ?v1))) (let ((?v_2 (f100 ?v_1 ?v2))) (= (f100 ?v_1 (f100 ?v_0 ?v2)) (ite (= (f28 ?v0 ?v1) f1) (f100 ?v_0 ?v_2) ?v_2))))))
(assert (forall ((?v0 S24) (?v1 S21) (?v2 S25)) (let ((?v_1 (f105 f106 ?v0)) (?v_0 (f112 f113 ?v1))) (let ((?v_2 (f104 ?v_1 ?v2))) (= (f104 ?v_1 (f104 ?v_0 ?v2)) (ite (= (f33 ?v0 ?v1) f1) (f104 ?v_0 ?v_2) ?v_2))))))
(assert (forall ((?v0 S3) (?v1 S2) (?v2 S4)) (let ((?v_1 (f98 f99 ?v0)) (?v_0 (f60 f61 ?v1))) (let ((?v_2 (f59 ?v_1 ?v2))) (= (f59 ?v_1 (f59 ?v_0 ?v2)) (ite (= (f3 ?v0 ?v1) f1) (f59 ?v_0 ?v_2) ?v_2))))))
(assert (forall ((?v0 S10) (?v1 S9) (?v2 S13)) (let ((?v_1 (f95 f96 ?v0)) (?v_0 (f114 f115 ?v1))) (let ((?v_2 (f94 ?v_1 ?v2))) (= (f94 ?v_1 (f94 ?v_0 ?v2)) (ite (= (f20 ?v0 ?v1) f1) (f94 ?v_0 ?v_2) ?v_2))))))
(assert (forall ((?v0 S41) (?v1 S15) (?v2 S41)) (= (= (f70 (f71 f72 ?v0) ?v1) (f70 (f71 f72 ?v2) ?v1)) (forall ((?v3 S18)) (=> (= (f26 ?v3 (f27 ?v1)) f1) (= (f89 ?v0 ?v3) (f89 ?v2 ?v3)))))))
(assert (forall ((?v0 S58) (?v1 S15) (?v2 S58)) (= (= (f17 (f116 f117 ?v0) ?v1) (f17 (f116 f117 ?v2) ?v1)) (forall ((?v3 S18)) (=> (= (f26 ?v3 (f27 ?v1)) f1) (= (f118 ?v0 ?v3) (f118 ?v2 ?v3)))))))
(assert (forall ((?v0 S60) (?v1 S4) (?v2 S60)) (= (= (f119 (f120 f121 ?v0) ?v1) (f119 (f120 f121 ?v2) ?v1)) (forall ((?v3 S2)) (=> (= (f40 ?v3 (f41 ?v1)) f1) (= (f122 ?v0 ?v3) (f122 ?v2 ?v3)))))))
(assert (forall ((?v0 S63) (?v1 S15) (?v2 S63)) (= (= (f123 (f124 f125 ?v0) ?v1) (f123 (f124 f125 ?v2) ?v1)) (forall ((?v3 S18)) (=> (= (f26 ?v3 (f27 ?v1)) f1) (= (f126 ?v0 ?v3) (f126 ?v2 ?v3)))))))
(assert (forall ((?v0 S66) (?v1 S4) (?v2 S66)) (= (= (f127 (f128 f129 ?v0) ?v1) (f127 (f128 f129 ?v2) ?v1)) (forall ((?v3 S2)) (=> (= (f40 ?v3 (f41 ?v1)) f1) (= (f130 ?v0 ?v3) (f130 ?v2 ?v3)))))))
(assert (forall ((?v0 S69) (?v1 S15) (?v2 S69)) (= (= (f131 (f132 f133 ?v0) ?v1) (f131 (f132 f133 ?v2) ?v1)) (forall ((?v3 S18)) (=> (= (f26 ?v3 (f27 ?v1)) f1) (= (f134 ?v0 ?v3) (f134 ?v2 ?v3)))))))
(assert (forall ((?v0 S72) (?v1 S4) (?v2 S72)) (= (= (f135 (f136 f137 ?v0) ?v1) (f135 (f136 f137 ?v2) ?v1)) (forall ((?v3 S2)) (=> (= (f40 ?v3 (f41 ?v1)) f1) (= (f138 ?v0 ?v3) (f138 ?v2 ?v3)))))))
(assert (forall ((?v0 S75) (?v1 S13) (?v2 S75)) (= (= (f139 (f140 f141 ?v0) ?v1) (f139 (f140 f141 ?v2) ?v1)) (forall ((?v3 S9)) (=> (= (f12 ?v3 (f16 ?v1)) f1) (= (f142 ?v0 ?v3) (f142 ?v2 ?v3)))))))
(assert (forall ((?v0 S78) (?v1 S13) (?v2 S78)) (= (= (f143 (f144 f145 ?v0) ?v1) (f143 (f144 f145 ?v2) ?v1)) (forall ((?v3 S9)) (=> (= (f12 ?v3 (f16 ?v1)) f1) (= (f146 ?v0 ?v3) (f146 ?v2 ?v3)))))))
(assert (forall ((?v0 S81) (?v1 S21) (?v2 S81)) (= (= (f147 (f148 f149 ?v0) ?v1) (f147 (f148 f149 ?v2) ?v1)) (forall ((?v3 S22)) (=> (= (f31 ?v3 (f32 ?v1)) f1) (= (f150 ?v0 ?v3) (f150 ?v2 ?v3)))))))
(assert (forall ((?v0 S84) (?v1 S21) (?v2 S84)) (= (= (f151 (f152 f153 ?v0) ?v1) (f151 (f152 f153 ?v2) ?v1)) (forall ((?v3 S22)) (=> (= (f31 ?v3 (f32 ?v1)) f1) (= (f154 ?v0 ?v3) (f154 ?v2 ?v3)))))))
(assert (forall ((?v0 S87) (?v1 S25) (?v2 S87)) (= (= (f155 (f156 f157 ?v0) ?v1) (f155 (f156 f157 ?v2) ?v1)) (forall ((?v3 S21)) (=> (= (f36 ?v3 (f37 ?v1)) f1) (= (f158 ?v0 ?v3) (f158 ?v2 ?v3)))))))
(assert (forall ((?v0 S90) (?v1 S25) (?v2 S90)) (= (= (f159 (f160 f161 ?v0) ?v1) (f159 (f160 f161 ?v2) ?v1)) (forall ((?v3 S21)) (=> (= (f36 ?v3 (f37 ?v1)) f1) (= (f162 ?v0 ?v3) (f162 ?v2 ?v3)))))))
(assert (forall ((?v0 S15)) (= (f163 (f27 ?v0)) f1)))
(assert (forall ((?v0 S13)) (= (f164 (f16 ?v0)) f1)))
(assert (forall ((?v0 S4)) (= (f87 (f41 ?v0)) f1)))
(assert (forall ((?v0 S21)) (= (f165 (f32 ?v0)) f1)))
(assert (forall ((?v0 S25)) (= (f166 (f37 ?v0)) f1)))
(assert (=> (forall ((?v0 S2)) (=> (forall ((?v1 S18)) (=> (= (f26 ?v1 (f27 f19)) f1) (= (f57 ?v1 (f59 (f60 f61 ?v0) f11)) f1))) false)) false))
(assert (= (f27 f167) f168))
(assert (= (f16 f86) f169))
(assert (= (f37 f170) f171))
(assert (= (f32 f172) f173))
(assert (= (f41 f174) f88))
(assert (forall ((?v0 S4)) (= (f59 (f90 f92 f174) ?v0) ?v0)))
(assert (forall ((?v0 S15)) (= (= f168 (f27 ?v0)) (= ?v0 f167))))
(assert (forall ((?v0 S13)) (= (= f169 (f16 ?v0)) (= ?v0 f86))))
(assert (forall ((?v0 S25)) (= (= f171 (f37 ?v0)) (= ?v0 f170))))
(assert (forall ((?v0 S21)) (= (= f173 (f32 ?v0)) (= ?v0 f172))))
(assert (forall ((?v0 S4)) (= (= f88 (f41 ?v0)) (= ?v0 f174))))
(assert (forall ((?v0 S4)) (= (f59 (f90 f92 ?v0) f174) ?v0)))
(assert (forall ((?v0 S4)) (= (f59 (f90 f91 ?v0) f174) ?v0)))
(assert (forall ((?v0 S15)) (= (= (f27 ?v0) f168) (= ?v0 f167))))
(assert (forall ((?v0 S13)) (= (= (f16 ?v0) f169) (= ?v0 f86))))
(assert (forall ((?v0 S25)) (= (= (f37 ?v0) f171) (= ?v0 f170))))
(assert (forall ((?v0 S21)) (= (= (f32 ?v0) f173) (= ?v0 f172))))
(assert (forall ((?v0 S4)) (= (= (f41 ?v0) f88) (= ?v0 f174))))
(assert (forall ((?v0 S4) (?v1 S4) (?v2 S4)) (let ((?v_0 (f90 f92 ?v0))) (= (f59 (f90 f92 (f59 ?v_0 ?v1)) ?v2) (f59 ?v_0 (f59 (f90 f92 ?v1) ?v2))))))
(assert (forall ((?v0 S4)) (= (f8 (f9 f10 ?v0) f174) f84)))
(assert (forall ((?v0 S4)) (= (f8 (f9 f10 f174) ?v0) f84)))
(assert (forall ((?v0 S21) (?v1 S25)) (not (= (f104 (f112 f113 ?v0) ?v1) f170))))
(assert (forall ((?v0 S22) (?v1 S21)) (not (= (f100 (f110 f111 ?v0) ?v1) f172))))
(assert (forall ((?v0 S9) (?v1 S13)) (not (= (f94 (f114 f115 ?v0) ?v1) f86))))
(assert (forall ((?v0 S2) (?v1 S4)) (not (= (f59 (f60 f61 ?v0) ?v1) f174))))
(assert (forall ((?v0 S18) (?v1 S15)) (not (= (f74 (f108 f109 ?v0) ?v1) f167))))
(assert (forall ((?v0 S21) (?v1 S25)) (not (= f170 (f104 (f112 f113 ?v0) ?v1)))))
(assert (forall ((?v0 S22) (?v1 S21)) (not (= f172 (f100 (f110 f111 ?v0) ?v1)))))
(assert (forall ((?v0 S9) (?v1 S13)) (not (= f86 (f94 (f114 f115 ?v0) ?v1)))))
(assert (forall ((?v0 S2) (?v1 S4)) (not (= f174 (f59 (f60 f61 ?v0) ?v1)))))
(assert (forall ((?v0 S18) (?v1 S15)) (not (= f167 (f74 (f108 f109 ?v0) ?v1)))))
(assert (forall ((?v0 S41) (?v1 S15)) (= (= (f70 (f71 f72 ?v0) ?v1) f174) (= ?v1 f167))))
(assert (forall ((?v0 S90) (?v1 S25)) (= (= (f159 (f160 f161 ?v0) ?v1) f174) (= ?v1 f170))))
(assert (forall ((?v0 S87) (?v1 S25)) (= (= (f155 (f156 f157 ?v0) ?v1) f167) (= ?v1 f170))))
(assert (forall ((?v0 S84) (?v1 S21)) (= (= (f151 (f152 f153 ?v0) ?v1) f174) (= ?v1 f172))))
(assert (forall ((?v0 S81) (?v1 S21)) (= (= (f147 (f148 f149 ?v0) ?v1) f167) (= ?v1 f172))))
(assert (forall ((?v0 S78) (?v1 S13)) (= (= (f143 (f144 f145 ?v0) ?v1) f174) (= ?v1 f86))))
(assert (forall ((?v0 S75) (?v1 S13)) (= (= (f139 (f140 f141 ?v0) ?v1) f167) (= ?v1 f86))))
(assert (forall ((?v0 S72) (?v1 S4)) (= (= (f135 (f136 f137 ?v0) ?v1) f170) (= ?v1 f174))))
(assert (forall ((?v0 S69) (?v1 S15)) (= (= (f131 (f132 f133 ?v0) ?v1) f170) (= ?v1 f167))))
(assert (forall ((?v0 S66) (?v1 S4)) (= (= (f127 (f128 f129 ?v0) ?v1) f172) (= ?v1 f174))))
(assert (forall ((?v0 S63) (?v1 S15)) (= (= (f123 (f124 f125 ?v0) ?v1) f172) (= ?v1 f167))))
(assert (forall ((?v0 S60) (?v1 S4)) (= (= (f119 (f120 f121 ?v0) ?v1) f86) (= ?v1 f174))))
(assert (forall ((?v0 S58) (?v1 S15)) (= (= (f17 (f116 f117 ?v0) ?v1) f86) (= ?v1 f167))))
(assert (forall ((?v0 S41)) (= (f70 (f71 f72 ?v0) f167) f174)))
(assert (forall ((?v0 S72)) (= (f135 (f136 f137 ?v0) f174) f170)))
(assert (forall ((?v0 S69)) (= (f131 (f132 f133 ?v0) f167) f170)))
(assert (forall ((?v0 S66)) (= (f127 (f128 f129 ?v0) f174) f172)))
(assert (forall ((?v0 S63)) (= (f123 (f124 f125 ?v0) f167) f172)))
(assert (forall ((?v0 S60)) (= (f119 (f120 f121 ?v0) f174) f86)))
(assert (forall ((?v0 S58)) (= (f17 (f116 f117 ?v0) f167) f86)))
(assert (forall ((?v0 S90)) (= (f159 (f160 f161 ?v0) f170) f174)))
(assert (forall ((?v0 S87)) (= (f155 (f156 f157 ?v0) f170) f167)))
(assert (forall ((?v0 S84)) (= (f151 (f152 f153 ?v0) f172) f174)))
(assert (forall ((?v0 S81)) (= (f147 (f148 f149 ?v0) f172) f167)))
(assert (forall ((?v0 S78)) (= (f143 (f144 f145 ?v0) f86) f174)))
(assert (forall ((?v0 S75)) (= (f139 (f140 f141 ?v0) f86) f167)))
(assert (forall ((?v0 S41) (?v1 S15)) (= (= f174 (f70 (f71 f72 ?v0) ?v1)) (= ?v1 f167))))
(assert (forall ((?v0 S90) (?v1 S25)) (= (= f174 (f159 (f160 f161 ?v0) ?v1)) (= ?v1 f170))))
(assert (forall ((?v0 S87) (?v1 S25)) (= (= f167 (f155 (f156 f157 ?v0) ?v1)) (= ?v1 f170))))
(assert (forall ((?v0 S84) (?v1 S21)) (= (= f174 (f151 (f152 f153 ?v0) ?v1)) (= ?v1 f172))))
(assert (forall ((?v0 S81) (?v1 S21)) (= (= f167 (f147 (f148 f149 ?v0) ?v1)) (= ?v1 f172))))
(assert (forall ((?v0 S78) (?v1 S13)) (= (= f174 (f143 (f144 f145 ?v0) ?v1)) (= ?v1 f86))))
(assert (forall ((?v0 S75) (?v1 S13)) (= (= f167 (f139 (f140 f141 ?v0) ?v1)) (= ?v1 f86))))
(assert (forall ((?v0 S72) (?v1 S4)) (= (= f170 (f135 (f136 f137 ?v0) ?v1)) (= ?v1 f174))))
(assert (forall ((?v0 S69) (?v1 S15)) (= (= f170 (f131 (f132 f133 ?v0) ?v1)) (= ?v1 f167))))
(assert (forall ((?v0 S66) (?v1 S4)) (= (= f172 (f127 (f128 f129 ?v0) ?v1)) (= ?v1 f174))))
(assert (forall ((?v0 S63) (?v1 S15)) (= (= f172 (f123 (f124 f125 ?v0) ?v1)) (= ?v1 f167))))
(assert (forall ((?v0 S60) (?v1 S4)) (= (= f86 (f119 (f120 f121 ?v0) ?v1)) (= ?v1 f174))))
(assert (forall ((?v0 S58) (?v1 S15)) (= (= f86 (f17 (f116 f117 ?v0) ?v1)) (= ?v1 f167))))
(assert (forall ((?v0 S17)) (= (f74 (f75 f76 ?v0) f167) f167)))
(assert (forall ((?v0 S24)) (= (f104 (f105 f106 ?v0) f170) f170)))
(assert (forall ((?v0 S20)) (= (f100 (f101 f102 ?v0) f172) f172)))
(assert (forall ((?v0 S10)) (= (f94 (f95 f96 ?v0) f86) f86)))
(assert (forall ((?v0 S3)) (= (f59 (f98 f99 ?v0) f174) f174)))
(assert (forall ((?v0 S2) (?v1 S2)) (let ((?v_0 (f81 f84))) (=> (= (f3 ?v_0 ?v0) f1) (=> (= (f3 ?v_0 ?v1) f1) (= (f3 ?v_0 (f5 (f6 f64 ?v0) ?v1)) f1))))))
(assert (forall ((?v0 S2) (?v1 S2)) (=> (= (f3 (f81 f84) ?v0) f1) (= (f3 (f81 (f5 (f6 f64 ?v0) ?v1)) ?v0) f1))))
(assert (forall ((?v0 S17) (?v1 S15)) (= (= (f74 (f75 f76 ?v0) ?v1) f167) (forall ((?v2 S18)) (=> (= (f26 ?v2 (f27 ?v1)) f1) (not (= (f23 ?v0 ?v2) f1)))))))
(assert (forall ((?v0 S10) (?v1 S13)) (= (= (f94 (f95 f96 ?v0) ?v1) f86) (forall ((?v2 S9)) (=> (= (f12 ?v2 (f16 ?v1)) f1) (not (= (f20 ?v0 ?v2) f1)))))))
(assert (forall ((?v0 S3) (?v1 S4)) (= (= (f59 (f98 f99 ?v0) ?v1) f174) (forall ((?v2 S2)) (=> (= (f40 ?v2 (f41 ?v1)) f1) (not (= (f3 ?v0 ?v2) f1)))))))
(assert (forall ((?v0 S24) (?v1 S25)) (= (= (f104 (f105 f106 ?v0) ?v1) f170) (forall ((?v2 S21)) (=> (= (f36 ?v2 (f37 ?v1)) f1) (not (= (f33 ?v0 ?v2) f1)))))))
(assert (forall ((?v0 S20) (?v1 S21)) (= (= (f100 (f101 f102 ?v0) ?v1) f172) (forall ((?v2 S22)) (=> (= (f31 ?v2 (f32 ?v1)) f1) (not (= (f28 ?v0 ?v2) f1)))))))
(assert (forall ((?v0 S2)) (= (f5 (f6 f64 ?v0) ?v0) f84)))
(assert (forall ((?v0 S2)) (= (f5 (f6 f64 ?v0) f84) ?v0)))
(assert (forall ((?v0 S2)) (= (f5 (f6 f64 f84) ?v0) f84)))
(assert (forall ((?v0 S2)) (= (f5 (f6 f64 ?v0) ?v0) f84)))
(assert (forall ((?v0 S2)) (= (f5 (f6 f64 f84) ?v0) f84)))
(assert (forall ((?v0 S22) (?v1 S21) (?v2 S22) (?v3 S21)) (= (= (f100 (f110 f111 ?v0) ?v1) (f100 (f110 f111 ?v2) ?v3)) (and (= ?v0 ?v2) (= ?v1 ?v3)))))
(assert (forall ((?v0 S21) (?v1 S25) (?v2 S21) (?v3 S25)) (= (= (f104 (f112 f113 ?v0) ?v1) (f104 (f112 f113 ?v2) ?v3)) (and (= ?v0 ?v2) (= ?v1 ?v3)))))
(assert (forall ((?v0 S2) (?v1 S4) (?v2 S2) (?v3 S4)) (= (= (f59 (f60 f61 ?v0) ?v1) (f59 (f60 f61 ?v2) ?v3)) (and (= ?v0 ?v2) (= ?v1 ?v3)))))
(assert (forall ((?v0 S18) (?v1 S15) (?v2 S18) (?v3 S15)) (= (= (f74 (f108 f109 ?v0) ?v1) (f74 (f108 f109 ?v2) ?v3)) (and (= ?v0 ?v2) (= ?v1 ?v3)))))
(assert (forall ((?v0 S9) (?v1 S13) (?v2 S9) (?v3 S13)) (= (= (f94 (f114 f115 ?v0) ?v1) (f94 (f114 f115 ?v2) ?v3)) (and (= ?v0 ?v2) (= ?v1 ?v3)))))
(assert (forall ((?v0 S22) (?v1 S21)) (not (= (f100 (f110 f111 ?v0) ?v1) ?v1))))
(assert (forall ((?v0 S21) (?v1 S25)) (not (= (f104 (f112 f113 ?v0) ?v1) ?v1))))
(assert (forall ((?v0 S2) (?v1 S4)) (not (= (f59 (f60 f61 ?v0) ?v1) ?v1))))
(assert (forall ((?v0 S18) (?v1 S15)) (not (= (f74 (f108 f109 ?v0) ?v1) ?v1))))
(assert (forall ((?v0 S9) (?v1 S13)) (not (= (f94 (f114 f115 ?v0) ?v1) ?v1))))
(assert (forall ((?v0 S21) (?v1 S22)) (not (= ?v0 (f100 (f110 f111 ?v1) ?v0)))))
(assert (forall ((?v0 S25) (?v1 S21)) (not (= ?v0 (f104 (f112 f113 ?v1) ?v0)))))
(assert (forall ((?v0 S4) (?v1 S2)) (not (= ?v0 (f59 (f60 f61 ?v1) ?v0)))))
(assert (forall ((?v0 S15) (?v1 S18)) (not (= ?v0 (f74 (f108 f109 ?v1) ?v0)))))
(assert (forall ((?v0 S13) (?v1 S9)) (not (= ?v0 (f94 (f114 f115 ?v1) ?v0)))))
(assert (forall ((?v0 S2) (?v1 S2)) (let ((?v_0 (f5 (f6 f64 ?v0) ?v1))) (= (f5 (f6 f64 ?v_0) ?v1) ?v_0))))
(assert (forall ((?v0 S17) (?v1 S17) (?v2 S15)) (= (f74 (f75 f76 ?v0) (f74 (f75 f76 ?v1) ?v2)) (f74 (f75 f76 (f44 (f45 ?v0) ?v1)) ?v2))))
(assert (forall ((?v0 S20) (?v1 S20) (?v2 S21)) (= (f100 (f101 f102 ?v0) (f100 (f101 f102 ?v1) ?v2)) (f100 (f101 f102 (f46 (f47 ?v0) ?v1)) ?v2))))
(assert (forall ((?v0 S24) (?v1 S24) (?v2 S25)) (= (f104 (f105 f106 ?v0) (f104 (f105 f106 ?v1) ?v2)) (f104 (f105 f106 (f48 (f49 ?v0) ?v1)) ?v2))))
(assert (forall ((?v0 S3) (?v1 S3) (?v2 S4)) (= (f59 (f98 f99 ?v0) (f59 (f98 f99 ?v1) ?v2)) (f59 (f98 f99 (f50 (f51 ?v0) ?v1)) ?v2))))
(assert (forall ((?v0 S10) (?v1 S10) (?v2 S13)) (= (f94 (f95 f96 ?v0) (f94 (f95 f96 ?v1) ?v2)) (f94 (f95 f96 (f42 (f43 ?v0) ?v1)) ?v2))))
(assert (forall ((?v0 S2) (?v1 S4) (?v2 S2) (?v3 S4)) (= (f59 (f90 f92 (f59 (f60 f61 ?v0) ?v1)) (f59 (f60 f61 ?v2) ?v3)) (f59 (f60 f61 (f5 (f6 f62 ?v0) ?v2)) (f59 (f90 f92 ?v1) ?v3)))))
(assert (forall ((?v0 S2) (?v1 S4) (?v2 S2) (?v3 S4)) (= (f59 (f90 f91 (f59 (f60 f61 ?v0) ?v1)) (f59 (f60 f61 ?v2) ?v3)) (f59 (f60 f61 (f5 (f6 f7 ?v0) ?v2)) (f59 (f90 f91 ?v1) ?v3)))))
(assert (forall ((?v0 S2) (?v1 S2) (?v2 S2) (?v3 S2) (?v4 S2)) (=> (= (f5 (f6 f64 ?v0) ?v1) (f5 (f6 f64 ?v2) ?v1)) (=> (= (f5 (f6 f64 ?v3) ?v1) (f5 (f6 f64 ?v4) ?v1)) (= (f5 (f6 f64 (f5 (f6 f62 ?v0) ?v3)) ?v1) (f5 (f6 f64 (f5 (f6 f62 ?v2) ?v4)) ?v1))))))
(assert (forall ((?v0 S2) (?v1 S2) (?v2 S2)) (= (f5 (f6 f64 (f5 (f6 f62 (f5 (f6 f64 ?v0) ?v1)) ?v2)) ?v1) (f5 (f6 f64 (f5 (f6 f62 ?v0) ?v2)) ?v1))))
(assert (forall ((?v0 S2) (?v1 S2) (?v2 S2)) (let ((?v_0 (f6 f62 ?v0))) (= (f5 (f6 f64 (f5 ?v_0 (f5 (f6 f64 ?v1) ?v2))) ?v2) (f5 (f6 f64 (f5 ?v_0 ?v1)) ?v2)))))
(assert (forall ((?v0 S2) (?v1 S2) (?v2 S2)) (= (f5 (f6 f64 (f5 (f6 f62 ?v0) ?v1)) ?v2) (f5 (f6 f64 (f5 (f6 f62 (f5 (f6 f64 ?v0) ?v2)) (f5 (f6 f64 ?v1) ?v2))) ?v2))))
(assert (forall ((?v0 S2) (?v1 S2) (?v2 S2)) (= (f5 (f6 f64 (f5 (f6 f62 ?v0) ?v1)) ?v2) (f5 (f6 f64 (f5 (f6 f62 (f5 (f6 f64 ?v0) ?v2)) ?v1)) ?v2))))
(assert (forall ((?v0 S2) (?v1 S2) (?v2 S2)) (let ((?v_0 (f6 f62 ?v0))) (= (f5 (f6 f64 (f5 ?v_0 ?v1)) ?v2) (f5 (f6 f64 (f5 ?v_0 (f5 (f6 f64 ?v1) ?v2))) ?v2)))))
(assert (forall ((?v0 S2) (?v1 S2)) (= (f5 (f6 f64 (f5 (f6 f62 ?v0) ?v1)) ?v0) (f5 (f6 f64 ?v1) ?v0))))
(assert (forall ((?v0 S2) (?v1 S2)) (= (f5 (f6 f64 (f5 (f6 f62 ?v0) ?v1)) ?v1) (f5 (f6 f64 ?v0) ?v1))))
(check-sat)
(exit)
